
Gurobi 13.0.2 (win64) logging started Fri Jul 24 09:10:07 2026

Set parameter LogFile to value "E:\codes\ExactEBRP\results\gf_c0_mechanism_transfer_c5_round30\runs\stage2__high_imbalance_seed5202__c5_candidate__300s\external\native_logs\L1.1.0.1_partial_target_mip.gurobi.log"
Gurobi Optimizer version 13.0.2 build v13.0.2rc1 (win64 - Windows 10.0 (19045.2))

CPU model: 12th Gen Intel(R) Core(TM) i7-12700KF, instruction set [SSE2|AVX|AVX2]
Thread count: 12 physical cores, 20 logical processors, using up to 1 threads

Non-default parameters:
TimeLimit  269.8059292
MIPGap  0
MIPGapAbs  0
LogToConsole  0
Threads  1

Optimize a model with 11923 rows, 3380 columns and 67410 nonzeros (Min)
Model fingerprint: 0xad6856ee
Model has 21 linear objective coefficients
Variable types: 1687 continuous, 1693 integer (1493 binary)
Coefficient statistics:
  Matrix range     [2e-02, 2e+04]
  Objective range  [2e-02, 1e+00]
  Bounds range     [4e-01, 7e+02]
  RHS range        [4e-01, 5e+04]

Presolve removed 1830 rows and 64 columns
Presolve time: 0.18s
Presolved: 10093 rows, 3316 columns, 74171 nonzeros
Variable types: 1641 continuous, 1675 integer (1496 binary)

Root relaxation: objective 1.017844e+00, 3625 iterations, 0.18 seconds (0.48 work units)

    Nodes    |    Current Node    |     Objective Bounds      |     Work
 Expl Unexpl |  Obj  Depth IntInf | Incumbent    BestBd   Gap | It/Node Time

     0     0    1.01784    0  252          -    1.01784      -     -    0s

Explored 1 nodes (3625 simplex iterations) in 0.40 seconds (0.89 work units)
Thread count was 1 (of 20 available processors)

Solution count 0

Solve interrupted
Best objective -, best bound 1.017843719171e+00, gap -

User-callback calls 769, time in user-callback 0.00 sec
